VALUE 22756
1 67
2 30
3 16
3 21
3 77
4 32
4 33
4 51
5 49
5 23
6 35
6 58
6 46
7 71
8 70
8 11
8 28
9 71
10 13
10 30
12 73
12 78
13 17
13 26
13 61
14 66
14 27
15 64
15 66
16 80
17 43
18 28
19 35
19 54
20 67
20 69
21 53
21 39
21 24
22 40
23 71
23 78
25 54
27 28
28 52
28 37
28 44
29 67
29 39
29 41
30 55
30 59
30 75
31 32
31 72
33 80
33 68
34 80
34 60
36 44
37 56
37 42
38 50
38 67
40 67
40 62
43 57
45 68
47 62
48 65
48 79
52 53
54 80
54 63
55 66
58 65
59 76
63 78
67 74